sample0
1.0
        1.0  0.0  0.0
        0.0  1.0  0.0
        0.0  0.0  1.0
  1 1 1
Direct
        0.0  0.0  0.0  #Li-001
        0.5  0.0  0.0  #Ge-002
        0.5  0.5  0.0  #O--003
