sample1
2.0
    1.0  0.0  0.0
    0.0  1.0  0.0
    0.0  0.0  1.0
 1 1 2
Selective dynamics
Direct
    0.0  0.0  0.0  F F F #Li-001
    0.5  0.0  0.0  F T F #Ge-002
    0.5  0.5  0.0  T T T #O--003
    0.5  0.5  0.5  T T T #O--003
