Generated from by site2poscar.          
   1.00000000000000     
     5.1173400000000004    0.0000000000000000    0.0000000000000000
     0.0000000000000000    5.1173400000000004    0.0000000000000000
     0.0000000000000000    0.0000000000000000    5.1173400000000004
   Ag   I 
     2     2
Selective dynamics
Direct
  0.9861200058610393  0.5000000000000000  0.2524666188958165 T T T 
  0.7524666188958165  0.0000000000000000  0.4861200058610393 T T T 
  0.0279830950069169  0.0000000000000000  0.9834302802362274 F F F 
  0.4834302802362274  0.5000000000000000  0.5279830950069169 T T T 
