POSCAR_1_1 (VASP)
   1.00000000000000
     0.86602540378443864676  0.5  0.0
     0.0  1.0  0.0
     0.0  0.0  1.0
   1
Direct
   0.0  0.0  0.0
