Mg                                      
   1.00000000000000     
     3.1802469835764620    0.0000000000000000    0.0000000000000000
    -1.5901234917882310    2.7541746780120153    0.0000000000000000
     0.0000000000000000    0.0000000000000000    5.1663074054355747
   Mg
     2
Direct
  0.3333333429999996  0.6666666870000029  0.2500000000000000
  0.6666666269999979  0.3333333129999971  0.7500000000000000
 
  0.00000000E+00  0.00000000E+00  0.00000000E+00
  0.00000000E+00  0.00000000E+00  0.00000000E+00
