Generated from by site2poscar.          
   1.00000000000000     
     5.1173400000000004    0.0000000000000000    0.0000000000000000
     0.0000000000000000    5.1173400000000004    0.0000000000000000
     0.0000000000000000    0.0000000000000000    5.1173400000000004
   Ag   I 
     2     2
Selective dynamics
Direct
  0.11806000293051965000 0.50000000000000000000 0.12623330944790825000 T T T 
  0.75123330944790825000 0.00000000000000000000 0.49306000293051965000 T T T 
  0.01399154750345845000 0.00000000000000000000 0.99171514011811370000 F F F 
  0.49171514011811370000 0.50000000000000000000 0.51399154750345845000 T T T 




#  0.9861200058610393  0.5000000000000000  0.2524666188958165
#  0.7524666188958165  0.0000000000000000  0.4861200058610393
#  0.0279830950069169  0.0000000000000000  0.9834302802362274
#  0.4834302802362274  0.5000000000000000  0.5279830950069169
#
#  0.2500000000000000  0.5000000000000000  0.0000000000000000
#  0.7500000000000000  0.0000000000000000  0.5000000000000000
#  0.0000000000000000  0.0000000000000000  0.0000000000000000
#  0.5000000000000000  0.5000000000000000  0.5000000000000000
#
