Automatic mesh
0
Gamma Cencer
  64  64  64
  0.  0.  0.

