Mg
1.0
        3.2125000954         0.0000000000         0.0000000000
       -1.6062500477         2.7821066922         0.0000000000
        0.0000000000         0.0000000000         5.2132000923
   Mg
    2
Direct
     0.333333343         0.666666687         0.250000000
     0.666666627         0.333333313         0.750000000
