Mg                                      
   1.00000000000000     
     3.1868561728432336    0.0000000000000000    0.0000000000000000
    -1.5934280864216168    2.7598984038149879    0.0000000000000000
     0.0000000000000000    0.0000000000000000    5.1728597021075080
   Mg
     2
Direct
  0.3333333429999996  0.6666666870000029  0.2500000000000000
  0.6666666269999979  0.3333333129999971  0.7500000000000000
 
  0.00000000E+00  0.00000000E+00  0.00000000E+00
  0.00000000E+00  0.00000000E+00  0.00000000E+00
