POSCAR of gamma-Li4GeO4
1.0
    6.2882  0.0000  0.0000
    0.0000  5.4360  0.0000
    0.0000  0.0000  5.1696
 Li Ge O
  8  2 8
Direct
    0.25000  0.67835  0.50245  #Li-001
    0.75000  0.67835  0.50245  #Li-002
    0.00000  0.13760  0.50245  #Li-003
    0.25000  0.32165  0.00245  #Li-004
    0.75000  0.32165  0.00245  #Li-005
    0.50000  0.86240  0.00245  #Li-006
    0.50000  0.51270  0.13367  #Li-007
    0.50000  0.51270  0.63367  #Li-008
    0.00000  0.82430  0.00000  #Ge-009
    0.50000  0.17570  0.50000  #Ge-010
    0.00000  0.10520  0.90040  #O--011
    0.20770  0.68670  0.89610  #O--012
    0.79230  0.68670  0.89610  #O--013
    0.50000  0.18140  0.81720  #O--014
    0.50000  0.89480  0.40040  #O--015
    0.29230  0.31330  0.39610  #O--016
    0.70770  0.31330  0.39610  #O--017
    0.00000  0.81860  0.31720  #O--018
