POSCAR_1_1 (VASP)
   1.00000000000000
     1.5  1.4  1.3
     0.0  1.2  1.1
     0.0  0.0  1.0
   3
Direct
   0.0  0.0  0.0
   0.1  0.2  0.3
   0.2  0.3  0.4
