Untitled (VASP)                         
   1.00000000000000     
     3.6309428448338478   -0.0000000000000001    0.0000000000000000
    -1.8154714224169159    3.1444887433154549    0.0000000000000000
     0.0000000000000000    0.0000000000000000    3.8678456093562040
   3   1
Selective dynamics
Direct
  0.0000000000000000  0.0000000000000000  0.5000000000000000   T   T   T
  0.3333333333333357  0.6666666666666642  0.0000000000000000   T   T   T
  0.6666666666666642  0.3333333333333357  0.0000000000000000   T   T   T
  0.0000000000000000  0.0000000000000000  0.0000000000000000   F   F   F
 
  0.00000000E+00  0.00000000E+00  0.00000000E+00
  0.00000000E+00  0.00000000E+00  0.00000000E+00
  0.00000000E+00  0.00000000E+00  0.00000000E+00
  0.00000000E+00  0.00000000E+00  0.00000000E+00
