Untitled (VASP)                         
   1.00000000000000     
    1.0 0.0 0.0
    0.0 1.0 0.0
    0.0 0.0 1.0
   1
Direct
  0.0  0.0  0.0
