Mg                                      
      1.00000000000000     
          3.1746065426309040    0.0000000000000000    0.0000000000000000
        -1.5873032713154520    2.7492899128650183    0.0000000000000000
          0.0000000000000000    0.0000000000000000    5.1575244443381774
      Mg
          2
Direct
    0.3333333429999996  0.6666666870000029  0.2500000000000000
    0.6666666269999979  0.3333333129999971  0.7500000000000000
  
    0.00000000E+00  0.00000000E+00  0.00000000E+00
    0.00000000E+00  0.00000000E+00  0.00000000E+00
