Automatic mesh
0
Gamma Cencer
  4  4  4
  0.  0.  0.

