POSCAR_1_1 (VASP)
   1.00000000000000
     3.0  0.0  0.0
     0.0  2.0  0.0
     0.0  0.0  1.0
   1
Direct
   0.0  0.0  0.0
