Untitled (VASP)                         
   1.00000000000000     
    1.4 0.0 0.0
    0.0 1.0 0.0
    0.0 0.0 1.4
   3   1
Selective dynamics
Direct
  0.0000000000000000  0.0000000000000000  0.5000000000000000   T   T   T
  0.3333333333333333  0.6666666666666666  0.0000000000000000   T   T   T
  0.6666666666666666  0.3333333333333333  0.0000000000000000   T   T   T
  0.0000000000000000  0.0000000000000000  0.0000000000000000   F   F   F
