Automatic mesh
0
Monkhorst
8 8 8
0.0 0.0 0.0
