Automatic mesh
0
Monkhorst
  1  1  1
  0.  0.  0.

