(Li)2  (I222) ~ Untitled (VASP)         
   1.00000000000000     
    -1.6954338738674965   -1.6954338738674965    1.6954338738674965
    -1.6954338738674965    1.6954338738674965   -1.6954338738674965
     1.6954338738674965   -1.6954338738674965   -1.6954338738674965
   1
Direct
  0.0000000000000000  0.0000000000000000  0.0000000000000000
