Mg                                      
      1.00000000000000     
          3.5744713269694190    0.0000000000000000    0.0000000000000000
        -1.7872356634847095    3.0955829741505698    0.0000000000000000
          0.0000000000000000    0.0000000000000000    3.9994614601778604
      Mg
          2
Direct
    0.3333333429999996  0.6666666870000029  0.2500000000000000
    0.6666666269999979  0.3333333129999971  0.7500000000000000
  
    0.00000000E+00  0.00000000E+00  0.00000000E+00
    0.00000000E+00  0.00000000E+00  0.00000000E+00
