Automatic mesh
0
Gamma Cencer
  2  2  2
  0.  0.  0.

