Automatic mesh
0
Gamma Cencer
  32  32  32
  0.  0.  0.

