Automatic mesh
0
Gamma Cencer
  1  1  1
  0.  0.  0.

