Mg                                      
      1.00000000000000     
          2.5743441388533261    0.0000000000000000    0.0000000000000000
        -1.2871720694266631    2.2294474222988714    0.0000000000000000
          0.0000000000000000    0.0000000000000000    7.8801530485297295
      Mg
          2
Direct
    0.3333333429999996  0.6666666870000029  0.2500000000000000
    0.6666666269999979  0.3333333129999971  0.7500000000000000
  
    0.00000000E+00  0.00000000E+00  0.00000000E+00
    0.00000000E+00  0.00000000E+00  0.00000000E+00
