Automatic mesh
0
Gamma Cencer
  32  32  64
  0.  0.  0.

